%%% static parameters %%%
timespan = 1;
Fact = [3];
Distr1 = [10];
Distr2 = [20];
Clients_N = [40];
Demand_W = [15];
Lt0 = [4];
Lt1 = [4];
SS_ = [0.85];
DS_D = [7];
K = [200];
MA = [500];
%%% dynamic parameters %%%
lost_ratio_sales_ret_th = 0.32939799505820866;
lost_ratio_sales_ret_w = 80;
lost_ratio_sales_dis_th = 0.8983332103677122;
lost_ratio_sales_dis_w = 82;
lost_ratio_sales_fac_th = 0.21493907366973342;
lost_ratio_sales_fac_w = 66;
stock_customer_MA_mean_relative_th = 0.0476838452635141;
stock_customer_MA_mean_relative_w = 72;
stock_distributor_MA_mean_relative_th = 0.2705005601782462;
stock_distributor_MA_mean_relative_w = 23;
stock_retailer_MA_mean_relative_th = 0.11064674476527891;
stock_retailer_MA_mean_relative_w = 85;
stock_factory_MA_mean_relative_th = 0.04398358817076364;
stock_factory_MA_mean_relative_w = 34;
